presolving:
(round 1, fast)       4700 del vars, 4697 del conss, 0 add conss, 2854 chg bounds, 4464 chg sides, 1505 chg coeffs, 0 upgd conss, 0 impls, 1781 clqs
(round 2, fast)       4700 del vars, 7552 del conss, 0 add conss, 2854 chg bounds, 4481 chg sides, 1522 chg coeffs, 0 upgd conss, 0 impls, 1781 clqs
   (0.3s) running MILP presolver
   (0.3s) MILP presolver (2 rounds): 0 aggregations, 0 fixings, 0 bound changes
(round 3, medium)     4700 del vars, 11101 del conss, 2754 add conss, 2854 chg bounds, 4481 chg sides, 1522 chg coeffs, 0 upgd conss, 0 impls, 1781 clqs
(round 4, exhaustive) 4700 del vars, 11101 del conss, 2754 add conss, 2854 chg bounds, 4481 chg sides, 1522 chg coeffs, 2754 upgd conss, 0 impls, 1781 clqs
(round 5, medium)     4700 del vars, 13759 del conss, 4526 add conss, 2854 chg bounds, 6253 chg sides, 30356 chg coeffs, 2754 upgd conss, 0 impls, 1781 clqs
   (0.5s) running MILP presolver
   (0.5s) MILP presolver found nothing
(round 6, exhaustive) 4700 del vars, 15481 del conss, 4570 add conss, 2854 chg bounds, 6253 chg sides, 30356 chg coeffs, 2754 upgd conss, 0 impls, 1781 clqs
(round 7, exhaustive) 4700 del vars, 15481 del conss, 4570 add conss, 2854 chg bounds, 6253 chg sides, 30399 chg coeffs, 2754 upgd conss, 0 impls, 1781 clqs
   (0.6s) probing: 51/1722 (3.0%) - 0 fixings, 0 aggregations, 0 implications, 0 bound changes
   (0.6s) probing aborted: 50/50 successive totally useless probings
   (0.6s) symmetry computation started: requiring (bin +, int -, cont +), (fixed: bin -, int +, cont -)
   (0.6s) no symmetry present
presolving (8 rounds: 8 fast, 6 medium, 4 exhaustive):
 4700 deleted vars, 15481 deleted constraints, 4570 added constraints, 2854 tightened bounds, 0 added holes, 6253 changed sides, 30399 changed coefficients
 0 implications, 1781 cliques
presolved problem has 1722 variables (1722 bin, 0 int, 0 impl, 0 cont) and 190 constraints
     43 constraints of type <knapsack>
    103 constraints of type <setppc>
     44 constraints of type <and>
transformed objective value is always integral (scale: 1)
Presolving Time: 0.55

 time | node  | left  |LP iter|LP it/n|mem/heur|mdpt |vars |cons |rows |cuts |sepa|confs|strbr|  dualbound   | primalbound  |  gap   | compl. 
p 0.7s|     1 |     0 |     0 |     - |  clique|   0 |1722 | 190 | 234 |   0 |  0 |   0 |   0 | 0.000000e+00 | 1.062250e+05 |    Inf | unknown
p 0.7s|     1 |     0 |     0 |     - |   locks|   0 |1722 | 190 | 234 |   0 |  0 |   0 |   0 | 0.000000e+00 | 4.214000e+04 |    Inf | unknown
p 0.8s|     1 |     0 |     0 |     - | vbounds|   0 |1722 | 194 | 234 |   0 |  0 |   4 |   0 | 0.000000e+00 | 3.450200e+04 |    Inf | unknown
p 0.8s|     1 |     0 |    82 |     - | vbounds|   0 |1722 | 194 | 234 |   0 |  0 |   4 |   0 | 0.000000e+00 | 2.717800e+04 |    Inf | unknown
  0.8s|     1 |     0 |   511 |     - |    63M |   0 |1722 | 194 | 234 |   0 |  0 |   4 |   0 | 1.576580e+04 | 2.717800e+04 |  72.39%| unknown
  1.0s|     1 |     0 |   718 |     - |    63M |   0 |1722 | 194 | 266 |  32 |  1 |   4 |   0 | 1.740493e+04 | 2.717800e+04 |  56.15%| unknown
  1.1s|     1 |     0 |   992 |     - |    64M |   0 |1722 | 194 | 297 |  63 |  2 |   4 |   0 | 1.853194e+04 | 2.717800e+04 |  46.65%| unknown
  1.3s|     1 |     0 |  1540 |     - |    65M |   0 |1722 | 194 | 334 | 100 |  3 |   4 |   0 | 1.923289e+04 | 2.717800e+04 |  41.31%| unknown
  1.6s|     1 |     0 |  2013 |     - |    66M |   0 |1722 | 194 | 371 | 137 |  4 |   4 |   0 | 1.963942e+04 | 2.717800e+04 |  38.38%| unknown
  1.9s|     1 |     0 |  2805 |     - |    66M |   0 |1722 | 194 | 401 | 167 |  5 |   4 |   0 | 2.005863e+04 | 2.717800e+04 |  35.49%| unknown
  2.2s|     1 |     0 |  3603 |     - |    66M |   0 |1722 | 194 | 435 | 201 |  6 |   4 |   0 | 2.037602e+04 | 2.717800e+04 |  33.38%| unknown
  2.4s|     1 |     0 |  4181 |     - |    66M |   0 |1722 | 194 | 465 | 231 |  7 |   4 |   0 | 2.059570e+04 | 2.717800e+04 |  31.96%| unknown
  2.6s|     1 |     0 |  4997 |     - |    66M |   0 |1722 | 194 | 494 | 260 |  8 |   4 |   0 | 2.075841e+04 | 2.717800e+04 |  30.93%| unknown
  2.8s|     1 |     0 |  5575 |     - |    66M |   0 |1722 | 194 | 522 | 288 |  9 |   4 |   0 | 2.087757e+04 | 2.717800e+04 |  30.18%| unknown
  3.0s|     1 |     0 |  6284 |     - |    67M |   0 |1722 | 194 | 549 | 315 | 10 |   4 |   0 | 2.103727e+04 | 2.717800e+04 |  29.19%| unknown
 time | node  | left  |LP iter|LP it/n|mem/heur|mdpt |vars |cons |rows |cuts |sepa|confs|strbr|  dualbound   | primalbound  |  gap   | compl. 
  3.2s|     1 |     0 |  6941 |     - |    67M |   0 |1722 | 194 | 578 | 344 | 11 |   4 |   0 | 2.115601e+04 | 2.717800e+04 |  28.46%| unknown
  3.4s|     1 |     0 |  7561 |     - |    67M |   0 |1722 | 194 | 603 | 369 | 12 |   4 |   0 | 2.123979e+04 | 2.717800e+04 |  27.96%| unknown
  3.6s|     1 |     0 |  8281 |     - |    67M |   0 |1722 | 194 | 628 | 394 | 13 |   4 |   0 | 2.134023e+04 | 2.717800e+04 |  27.36%| unknown
  3.9s|     1 |     0 |  8769 |     - |    67M |   0 |1722 | 194 | 651 | 417 | 14 |   4 |   0 | 2.141276e+04 | 2.717800e+04 |  26.92%| unknown
  4.0s|     1 |     0 |  9428 |     - |    67M |   0 |1722 | 194 | 680 | 446 | 15 |   4 |   0 | 2.151101e+04 | 2.717800e+04 |  26.34%| unknown
  4.2s|     1 |     0 | 10057 |     - |    67M |   0 |1722 | 194 | 707 | 473 | 16 |   4 |   0 | 2.157202e+04 | 2.717800e+04 |  25.99%| unknown
  4.6s|     1 |     0 | 10666 |     - |    67M |   0 |1722 | 194 | 731 | 497 | 17 |   4 |   0 | 2.163487e+04 | 2.717800e+04 |  25.62%| unknown
  4.8s|     1 |     0 | 11195 |     - |    68M |   0 |1722 | 194 | 756 | 522 | 18 |   4 |   0 | 2.169348e+04 | 2.717800e+04 |  25.28%| unknown
  5.2s|     1 |     0 | 11911 |     - |    68M |   0 |1722 | 194 | 781 | 547 | 19 |   4 |   0 | 2.176883e+04 | 2.717800e+04 |  24.85%| unknown
  5.4s|     1 |     0 | 12369 |     - |    68M |   0 |1722 | 194 | 805 | 571 | 20 |   4 |   0 | 2.182822e+04 | 2.717800e+04 |  24.51%| unknown
  5.7s|     1 |     0 | 12938 |     - |    68M |   0 |1722 | 194 | 832 | 598 | 21 |   4 |   0 | 2.188781e+04 | 2.717800e+04 |  24.17%| unknown
  5.9s|     1 |     0 | 13504 |     - |    68M |   0 |1722 | 194 | 856 | 623 | 22 |   4 |   0 | 2.193807e+04 | 2.717800e+04 |  23.89%| unknown
  6.1s|     1 |     0 | 13835 |     - |    68M |   0 |1722 | 194 | 880 | 647 | 23 |   4 |   0 | 2.197896e+04 | 2.717800e+04 |  23.65%| unknown
  6.2s|     1 |     0 | 14338 |     - |    68M |   0 |1722 | 194 | 899 | 666 | 24 |   4 |   0 | 2.201302e+04 | 2.717800e+04 |  23.46%| unknown
  6.5s|     1 |     0 | 14742 |     - |    68M |   0 |1722 | 194 | 920 | 687 | 25 |   4 |   0 | 2.204426e+04 | 2.717800e+04 |  23.29%| unknown
 time | node  | left  |LP iter|LP it/n|mem/heur|mdpt |vars |cons |rows |cuts |sepa|confs|strbr|  dualbound   | primalbound  |  gap   | compl. 
  6.6s|     1 |     0 | 15076 |     - |    68M |   0 |1722 | 194 | 938 | 705 | 26 |   4 |   0 | 2.207539e+04 | 2.717800e+04 |  23.11%| unknown
  6.8s|     1 |     0 | 15401 |     - |    68M |   0 |1722 | 194 | 958 | 725 | 27 |   4 |   0 | 2.209750e+04 | 2.717800e+04 |  22.99%| unknown
  7.0s|     1 |     0 | 15673 |     - |    68M |   0 |1722 | 194 | 968 | 740 | 28 |   4 |   0 | 2.211222e+04 | 2.717800e+04 |  22.91%| unknown
  7.1s|     1 |     0 | 16000 |     - |    68M |   0 |1722 | 194 | 984 | 756 | 29 |   4 |   0 | 2.213509e+04 | 2.717800e+04 |  22.78%| unknown
  7.2s|     1 |     0 | 16257 |     - |    68M |   0 |1722 | 194 |1002 | 774 | 30 |   4 |   0 | 2.215307e+04 | 2.717800e+04 |  22.68%| unknown
  7.3s|     1 |     0 | 16497 |     - |    68M |   0 |1722 | 194 |1015 | 787 | 31 |   4 |   0 | 2.216405e+04 | 2.717800e+04 |  22.62%| unknown
  7.3s|     1 |     0 | 16639 |     - |    68M |   0 |1722 | 194 |1027 | 799 | 32 |   4 |   0 | 2.217195e+04 | 2.717800e+04 |  22.58%| unknown
  7.4s|     1 |     0 | 16758 |     - |    68M |   0 |1722 | 194 |1040 | 812 | 33 |   4 |   0 | 2.217628e+04 | 2.717800e+04 |  22.55%| unknown
  7.5s|     1 |     0 | 16826 |     - |    68M |   0 |1722 | 194 |1022 | 822 | 34 |   4 |   0 | 2.217953e+04 | 2.717800e+04 |  22.54%| unknown
  7.5s|     1 |     0 | 16861 |     - |    68M |   0 |1722 | 194 |1029 | 829 | 35 |   4 |   0 | 2.218126e+04 | 2.717800e+04 |  22.53%| unknown
  7.6s|     1 |     0 | 16890 |     - |    68M |   0 |1722 | 194 |1033 | 833 | 36 |   4 |   0 | 2.218182e+04 | 2.717800e+04 |  22.52%| unknown
  7.7s|     1 |     0 | 16908 |     - |    68M |   0 |1722 | 194 |1036 | 836 | 37 |   4 |   0 | 2.218187e+04 | 2.717800e+04 |  22.52%| unknown
  7.7s|     1 |     0 | 16909 |     - |    68M |   0 |1722 | 194 |1037 | 837 | 38 |   4 |   0 | 2.218187e+04 | 2.717800e+04 |  22.52%| unknown
d 8.6s|     1 |     0 | 20067 |     - |farkasdi|   0 |1722 | 194 |1037 |   0 | 40 |   4 |   0 | 2.218187e+04 | 2.516600e+04 |  13.45%| unknown
 11.2s|     1 |     0 | 25478 |     - |    69M |   0 |1722 | 194 |1037 | 837 | 40 |   4 |   0 | 2.218187e+04 | 2.516600e+04 |  13.45%| unknown
 time | node  | left  |LP iter|LP it/n|mem/heur|mdpt |vars |cons |rows |cuts |sepa|confs|strbr|  dualbound   | primalbound  |  gap   | compl. 
 11.3s|     1 |     0 | 25480 |     - |    69M |   0 |1722 | 193 |1038 | 838 | 41 |   4 |   0 | 2.218205e+04 | 2.516600e+04 |  13.45%| unknown
 15.5s|     1 |     2 | 25480 |     - |    69M |   0 |1722 | 193 |1038 | 838 | 42 |   4 |  21 | 2.229997e+04 | 2.516600e+04 |  12.85%| unknown
*42.5s|    12 |     9 | 38043 |1928.5 |    LP  |  10 |1722 | 207 |1288 |1195 |  2 |  18 | 233 | 2.229997e+04 | 2.503300e+04 |  12.26%| unknown
*45.0s|    19 |     9 | 38994 |1231.4 |    LP  |  10 |1722 | 218 |1265 |1203 |  2 |  29 | 325 | 2.229997e+04 | 2.469800e+04 |  10.75%|   6.80%
*45.1s|    24 |     8 | 39217 | 973.4 |strongbr|  10 |1722 | 221 |1264 |1206 |  2 |  32 | 330 | 2.229997e+04 | 2.469300e+04 |  10.73%|   7.03%
*45.7s|    29 |     8 | 40024 | 828.4 |strongbr|  10 |1722 | 225 |1280 |1222 |  3 |  36 | 350 | 2.229997e+04 | 2.463600e+04 |  10.48%|   8.10%
*45.8s|    33 |     7 | 40091 | 726.9 |    LP  |  10 |1722 | 227 |1280 |1223 |  3 |  38 | 354 | 2.229997e+04 | 2.463300e+04 |  10.46%|   8.27%
*45.8s|    35 |     7 | 40114 | 684.9 |strongbr|  10 |1722 | 227 |1280 |1225 |  3 |  38 | 356 | 2.229997e+04 | 2.463200e+04 |  10.46%|   8.31%
 62.7s|   100 |    18 | 81009 | 648.3 |    84M |  14 |1722 | 229 |1398 |1859 |  2 |  43 | 396 | 2.252207e+04 | 2.463200e+04 |   9.37%|  21.61%
d68.3s|   150 |    26 | 98238 | 546.4 |fracdivi|  24 |1722 | 239 |1363 |   0 |  1 |  53 | 408 | 2.265596e+04 | 2.411900e+04 |   6.46%|  23.16%
r69.7s|   156 |    27 |103690 | 560.4 |rounding|  24 |1722 | 240 |1402 |2202 |  0 |  54 | 408 | 2.269018e+04 | 2.409800e+04 |   6.20%|  23.68%
*69.7s|   158 |    23 |103848 | 554.3 |    LP  |  24 |1722 | 240 |1402 |2202 |  1 |  54 | 408 | 2.269018e+04 | 2.406500e+04 |   6.06%|  24.18%
 77.2s|   200 |    23 |126403 | 550.6 |    89M |  24 |1722 | 245 |1438 |2493 |  0 |  59 | 428 | 2.273803e+04 | 2.406500e+04 |   5.84%|  43.87%
r81.5s|   214 |    21 |132666 | 543.8 |rounding|  24 |1722 | 267 |1432 |2550 |  0 |  81 | 460 | 2.279874e+04 | 2.404600e+04 |   5.47%|  49.91%
r81.5s|   214 |    21 |132717 | 544.1 |rounding|  24 |1722 | 267 |1433 |2551 |  1 |  81 | 460 | 2.279874e+04 | 2.402900e+04 |   5.40%|  49.91%
 time | node  | left  |LP iter|LP it/n|mem/heur|mdpt |vars |cons |rows |cuts |sepa|confs|strbr|  dualbound   | primalbound  |  gap   | compl. 
*81.5s|   215 |    20 |132741 | 541.6 |    LP  |  24 |1722 | 267 |1433 |2551 |  1 |  81 | 460 | 2.279874e+04 | 2.401100e+04 |   5.32%|  49.95%
 94.3s|   300 |    13 |165441 | 497.0 |   100M |  24 |1722 | 293 |1515 |2953 |  0 | 107 | 520 | 2.281536e+04 | 2.401100e+04 |   5.24%|  70.74%

SCIP Status        : problem is solved [optimal solution found]
Solving Time (sec) : 110.27
Solving Nodes      : 381
Primal Bound       : +2.40110000000000e+04 (26 solutions)
Dual Bound         : +2.40110000000000e+04
Gap                : 0.00 %
Solve Status: optimal
Solve Time: 110.28 seconds
